Version identifier: 22.1.0.0 | 2022-03-09 | 1a383f8ce
CPXPARAM_Read_DataCheck                          1
Tried aggregator 4 times.
MIP Presolve eliminated 19426 rows and 3048 columns.
MIP Presolve modified 352 coefficients.
Aggregator did 17124 substitutions.
Reduced MIP has 2995 rows, 17558 columns, and 38126 nonzeros.
Reduced MIP has 17536 binaries, 22 generals, 0 SOSs, and 0 indicators.
Presolve time = 0.16 sec. (174.39 ticks)
Tried aggregator 1 time.
Detecting symmetries...
Reduced MIP has 2995 rows, 17558 columns, and 38126 nonzeros.
Reduced MIP has 17536 binaries, 22 generals, 0 SOSs, and 0 indicators.
Presolve time = 0.03 sec. (28.16 ticks)
Probing fixed 36 vars, tightened 0 bounds.
Probing time = 0.05 sec. (9.40 ticks)
Clique table members: 35788.
MIP emphasis: balance optimality and feasibility.
MIP search method: dynamic search.
Parallel mode: deterministic, using up to 8 threads.
Root relaxation solution time = 0.25 sec. (134.47 ticks)

        Nodes                                         Cuts/
   Node  Left     Objective  IInf  Best Integer    Best Bound    ItCnt     Gap

      0     0       22.3703  2131                     22.3703     2672         
      0     0       34.0000   720                    Cuts: 39     6728         
      0     0       34.0000   612                    Cuts: 40     8880         
      0     0       34.0000   608                ZeroHalf: 26    10167         
*     0+    0                           41.0000       34.0000            17.07%
      0     0       34.0000   579       41.0000  ZeroHalf: 24    12333   17.07%
*     0+    0                           40.0000       34.0000            15.00%
      0     0       34.0000   620       40.0000  ZeroHalf: 13    13604   15.00%
      0     0       34.0000   504       40.0000   ZeroHalf: 1    13605   15.00%
      0     0       34.0000   708       40.0000  ZeroHalf: 38    16125   15.00%
      0     2       34.0000   618       40.0000       34.0000    16125   15.00%
Elapsed time = 23.22 sec. (14687.71 ticks, tree = 0.02 MB, solutions = 2)
      1     3       34.0345   635       40.0000       34.0000    19908   15.00%
      2     4       34.0370   653       40.0000       34.0000    21832   15.00%
      4     3       34.0000   614       40.0000       34.0000    16719   15.00%
      6     8       34.0476   692       40.0000       34.0000    26012   15.00%
     10    11       34.0476   830       40.0000       34.0000    30620   15.00%
     16    16       34.1115   634       40.0000       34.0000    43105   15.00%
     21    15       34.0476   857       40.0000       34.0000    35424   15.00%
     28    21       34.1115   620       40.0000       34.0000    45098   15.00%
     32    22       34.0476   819       40.0000       34.0000    57701   15.00%
     71    56       34.1115   703       40.0000       34.0000    92781   15.00%
Elapsed time = 32.36 sec. (19789.42 ticks, tree = 0.34 MB, solutions = 2)
    141    97       34.0435   778       40.0000       34.0000   188885   15.00%
    198   146       34.0644   858       40.0000       34.0000   301098   15.00%
    255   210       34.5667   232       40.0000       34.0000   442870   15.00%
    345   291       36.4050   220       40.0000       34.0000   615668   15.00%
    454   351       35.0000   298       40.0000       34.0000   784944   15.00%
    514   412       35.4226   230       40.0000       34.0000   883259   15.00%
    574   490       38.0000   109       40.0000       34.0000  1010748   15.00%
*   595+  442                           35.0000       34.0000             2.86%
    595   444       34.0000   564       35.0000       34.0000   987062    2.86%
    685    78       34.0000   743       35.0000       34.0000  1243203    2.86%
    934    90       34.0000   580       35.0000       34.0000  1357465    2.86%
Elapsed time = 58.79 sec. (29442.74 ticks, tree = 0.37 MB, solutions = 3)
   1240    70    infeasible             35.0000       34.0000  1337780    2.86%
   1593   242       34.0000   219       35.0000       34.0000  1448335    2.86%
   2138   352    infeasible             35.0000       34.0000  1519622    2.86%
   2772   535       34.0000   328       35.0000       34.0000  1598263    2.86%
   3144   423    infeasible             35.0000       34.0000  1697504    2.86%
   3326   288    infeasible             35.0000       34.0000  1733482    2.86%
   3437    42        cutoff             35.0000       34.0000  1829136    2.86%

Cover cuts applied:  1
Zero-half cuts applied:  74
Gomory fractional cuts applied:  12

Root node processing (before b&c):
  Real time             =   23.16 sec. (14663.02 ticks)
Parallel b&c, 8 threads:
  Real time             =   55.21 sec. (21811.99 ticks)
  Sync time (average)   =   10.40 sec.
  Wait time (average)   =    0.00 sec.
                          ------------
Total (root+branch&cut) =   78.37 sec. (36475.01 ticks)
